100
1000
300
297
296
290
289
288
286
285
282
281
278
275
275
272
267
265
262
259
255
252
251
249
244
243
239
237
237
236
236
232
231
230
230
229
224
223
222
222
220
219
218
215
214
213
206
204
204
201
196
195
193
191
187
187
184
184
181
180
172
171
164
163
162
161
161
160
155
155
149
149
145
142
142
141
141
140
139
137
136
135
132
131
127
127
123
121
119
119
119
117
116
116
115
113
108
108
106
105
103
103
